data;

set H := 1 3 7 9 11 12 14 15 16 18 19 21 22 23 25;

set Hbar := 0 1 3 7 9 11 12 14 15 16 18 19 21 22 23 25;

set I := 6 7 8 9 10;

set A := 
  (11,19)
  (11,1)
  (11,9)
  (11,7)
  (11,22)
  (11,23)
  (11,18)
  (11,14)
  (11,21)
  (11,15)
  (11,16)
  (11,25)
  (11,12)
  (11,3)
  (11,0)
  (19,11)
  (19,1)
  (19,9)
  (19,7)
  (19,22)
  (19,23)
  (19,18)
  (19,14)
  (19,21)
  (19,15)
  (19,16)
  (19,25)
  (19,12)
  (19,3)
  (19,0)
  (1,11)
  (1,19)
  (1,9)
  (1,7)
  (1,22)
  (1,23)
  (1,18)
  (1,14)
  (1,21)
  (1,15)
  (1,16)
  (1,25)
  (1,12)
  (1,3)
  (1,0)
  (9,11)
  (9,19)
  (9,1)
  (9,7)
  (9,22)
  (9,23)
  (9,18)
  (9,14)
  (9,21)
  (9,15)
  (9,16)
  (9,25)
  (9,12)
  (9,3)
  (9,0)
  (7,11)
  (7,19)
  (7,1)
  (7,9)
  (7,22)
  (7,23)
  (7,18)
  (7,14)
  (7,21)
  (7,15)
  (7,16)
  (7,25)
  (7,12)
  (7,3)
  (7,0)
  (22,11)
  (22,19)
  (22,1)
  (22,9)
  (22,7)
  (22,23)
  (22,18)
  (22,14)
  (22,21)
  (22,15)
  (22,16)
  (22,25)
  (22,12)
  (22,3)
  (22,0)
  (23,11)
  (23,19)
  (23,1)
  (23,9)
  (23,7)
  (23,22)
  (23,18)
  (23,14)
  (23,21)
  (23,15)
  (23,16)
  (23,25)
  (23,12)
  (23,3)
  (23,0)
  (18,11)
  (18,19)
  (18,1)
  (18,9)
  (18,7)
  (18,22)
  (18,23)
  (18,14)
  (18,21)
  (18,15)
  (18,16)
  (18,25)
  (18,12)
  (18,3)
  (18,0)
  (14,11)
  (14,19)
  (14,1)
  (14,9)
  (14,7)
  (14,22)
  (14,23)
  (14,18)
  (14,21)
  (14,15)
  (14,16)
  (14,25)
  (14,12)
  (14,3)
  (14,0)
  (21,11)
  (21,19)
  (21,1)
  (21,9)
  (21,7)
  (21,22)
  (21,23)
  (21,18)
  (21,14)
  (21,15)
  (21,16)
  (21,25)
  (21,12)
  (21,3)
  (21,0)
  (15,11)
  (15,19)
  (15,1)
  (15,9)
  (15,7)
  (15,22)
  (15,23)
  (15,18)
  (15,14)
  (15,21)
  (15,16)
  (15,25)
  (15,12)
  (15,3)
  (15,0)
  (16,11)
  (16,19)
  (16,1)
  (16,9)
  (16,7)
  (16,22)
  (16,23)
  (16,18)
  (16,14)
  (16,21)
  (16,15)
  (16,25)
  (16,12)
  (16,3)
  (16,0)
  (25,11)
  (25,19)
  (25,1)
  (25,9)
  (25,7)
  (25,22)
  (25,23)
  (25,18)
  (25,14)
  (25,21)
  (25,15)
  (25,16)
  (25,12)
  (25,3)
  (25,0)
  (12,11)
  (12,19)
  (12,1)
  (12,9)
  (12,7)
  (12,22)
  (12,23)
  (12,18)
  (12,14)
  (12,21)
  (12,15)
  (12,16)
  (12,25)
  (12,3)
  (12,0)
  (3,11)
  (3,19)
  (3,1)
  (3,9)
  (3,7)
  (3,22)
  (3,23)
  (3,18)
  (3,14)
  (3,21)
  (3,15)
  (3,16)
  (3,25)
  (3,12)
  (3,0)
;

param rho := 5;
param alpha := 0;
param M := 100;

param pk := 
  [6] 2.0
  [7] 1.5
  [8] 1.5
  [9] 1.0
  [10] 1.0
;

param Si := 
  [1] 656
  [3] 747
  [7] 426
  [9] 566
  [11] 864
  [12] 680
  [14] 911
  [15] 412
  [16] 819
  [18] 501
  [19] 185
  [21] 673
  [22] 306
  [23] 858
  [25] 150
;

param Delta := 
  [1] 1312.0
  [3] 1269.9
  [7] 852.0
  [9] 1132.0
  [11] 1468.8
  [12] 1156.0
  [14] 1548.7
  [15] 824.0
  [16] 1392.3
  [18] 1002.0
  [19] 370.0
  [21] 1144.1
  [22] 612.0
  [23] 1458.6
  [25] 300.0
;

param cij := 
  [11,19] 961
  [11,1] 1277
  [11,9] 395
  [11,7] 1117
  [11,22] 1165
  [11,23] 1734
  [11,18] 1243
  [11,14] 851
  [11,21] 1521
  [11,15] 727
  [11,16] 1342
  [11,25] 975
  [11,12] 290
  [11,3] 1233
  [11,0] 864
  [19,11] 961
  [19,1] 822
  [19,9] 741
  [19,7] 590
  [19,22] 432
  [19,23] 839
  [19,18] 318
  [19,14] 821
  [19,21] 582
  [19,15] 340
  [19,16] 618
  [19,25] 208
  [19,12] 730
  [19,3] 933
  [19,0] 185
  [1,11] 1277
  [1,19] 822
  [1,9] 865
  [1,7] 216
  [1,22] 431
  [1,23] 817
  [1,18] 1009
  [1,14] 1561
  [1,21] 864
  [1,15] 1059
  [1,16] 1389
  [1,25] 588
  [1,12] 1215
  [1,3] 196
  [1,0] 656
  [9,11] 395
  [9,19] 741
  [9,1] 865
  [9,7] 725
  [9,22] 828
  [9,23] 1417
  [9,18] 1054
  [9,14] 1000
  [9,21] 1249
  [9,15] 650
  [9,16] 1270
  [9,25] 661
  [9,12] 446
  [9,3] 816
  [9,0] 566
  [7,11] 1117
  [7,19] 590
  [7,1] 216
  [7,9] 725
  [7,22] 234
  [7,23] 751
  [7,18] 800
  [7,14] 1346
  [7,21] 721
  [7,15] 830
  [7,16] 1167
  [7,25] 371
  [7,12] 1021
  [7,3] 356
  [7,0] 426
  [22,11] 1165
  [22,19] 432
  [22,1] 431
  [22,9] 828
  [22,7] 234
  [22,23] 607
  [22,18] 588
  [22,14] 1226
  [22,21] 500
  [22,15] 728
  [22,16] 973
  [22,25] 234
  [22,12] 1004
  [22,3] 589
  [22,0] 306
  [23,11] 1734
  [23,19] 839
  [23,1] 817
  [23,9] 1417
  [23,7] 751
  [23,22] 607
  [23,18] 735
  [23,14] 1599
  [23,21] 328
  [23,15] 1166
  [23,16] 1057
  [23,25] 752
  [23,12] 1545
  [23,3] 1012
  [23,0] 858
  [18,11] 1243
  [18,19] 318
  [18,1] 1009
  [18,9] 1054
  [18,7] 800
  [18,22] 588
  [18,23] 735
  [18,14] 881
  [18,21] 420
  [18,15] 546
  [18,16] 388
  [18,25] 464
  [18,12] 983
  [18,3] 1161
  [18,0] 501
  [14,11] 851
  [14,19] 821
  [14,1] 1561
  [14,9] 1000
  [14,7] 1346
  [14,22] 1226
  [14,23] 1599
  [14,18] 881
  [14,21] 1296
  [14,15] 517
  [14,16] 731
  [14,25] 1071
  [14,12] 578
  [14,3] 1632
  [14,0] 911
  [21,11] 1521
  [21,19] 582
  [21,1] 864
  [21,9] 1249
  [21,7] 721
  [21,22] 500
  [21,23] 328
  [21,18] 420
  [21,14] 1296
  [21,15] 892
  [21,16] 749
  [21,25] 562
  [21,12] 1300
  [21,3] 1056
  [21,0] 673
  [15,11] 727
  [15,19] 340
  [15,1] 1059
  [15,9] 650
  [15,7] 830
  [15,22] 728
  [15,23] 1166
  [15,18] 546
  [15,14] 517
  [15,21] 892
  [15,16] 631
  [15,25] 480
  [15,12] 451
  [15,3] 1126
  [15,0] 412
  [16,11] 1342
  [16,19] 618
  [16,1] 1389
  [16,9] 1270
  [16,7] 1167
  [16,22] 973
  [16,23] 1057
  [16,18] 388
  [16,14] 731
  [16,21] 749
  [16,15] 631
  [16,25] 797
  [16,12] 1051
  [16,3] 1534
  [16,0] 819
  [25,11] 975
  [25,19] 208
  [25,1] 588
  [25,9] 661
  [25,7] 371
  [25,22] 234
  [25,23] 752
  [25,18] 464
  [25,14] 1071
  [25,21] 562
  [25,15] 480
  [25,16] 797
  [25,12] 775
  [25,3] 726
  [25,0] 150
  [12,11] 290
  [12,19] 730
  [12,1] 1215
  [12,9] 446
  [12,7] 1021
  [12,22] 1004
  [12,23] 1545
  [12,18] 983
  [12,14] 578
  [12,21] 1300
  [12,15] 451
  [12,16] 1051
  [12,25] 775
  [12,3] 1210
  [12,0] 680
  [3,11] 1233
  [3,19] 933
  [3,1] 196
  [3,9] 816
  [3,7] 356
  [3,22] 589
  [3,23] 1012
  [3,18] 1161
  [3,14] 1632
  [3,21] 1056
  [3,15] 1126
  [3,16] 1534
  [3,25] 726
  [3,12] 1210
  [3,0] 747
;

param dij := 
  [11,19] 0.15
  [11,1] 0.28
  [11,9] 0.18
  [11,7] 0.05
  [11,22] 0.26
  [11,23] 0.21
  [11,18] 0.18
  [11,14] 0.11
  [11,21] 0.04
  [11,15] 0.09
  [11,16] 0.19
  [11,25] 0.07
  [11,12] 0.03
  [11,3] 0.2
  [11,0] 0.13
  [19,11] 0.06
  [19,1] 0.21
  [19,9] 0.1
  [19,7] 0.11
  [19,22] 0.07
  [19,23] 0.1
  [19,18] 0.09
  [19,14] 0.15
  [19,21] 0.1
  [19,15] 0.11
  [19,16] 0.28
  [19,25] 0.17
  [19,12] 0.14
  [19,3] 0.15
  [19,0] 0.21
  [1,11] 0.15
  [1,19] 0.25
  [1,9] 0.15
  [1,7] 0.04
  [1,22] 0.19
  [1,23] 0.2
  [1,18] 0.14
  [1,14] 0.14
  [1,21] 0.18
  [1,15] 0.03
  [1,16] 0.17
  [1,25] 0.13
  [1,12] 0.27
  [1,3] 0.03
  [1,0] 0.15
  [9,11] 0.18
  [9,19] 0.28
  [9,1] 0.02
  [9,7] 0.03
  [9,22] 0.06
  [9,23] 0.19
  [9,18] 0.02
  [9,14] 0.05
  [9,21] 0.18
  [9,15] 0.08
  [9,16] 0.05
  [9,25] 0.07
  [9,12] 0.06
  [9,3] 0.29
  [9,0] 0.25
  [7,11] 0.15
  [7,19] 0.21
  [7,1] 0.13
  [7,9] 0.17
  [7,22] 0.26
  [7,23] 0.12
  [7,18] 0.07
  [7,14] 0.11
  [7,21] 0.23
  [7,15] 0.04
  [7,16] 0.06
  [7,25] 0.05
  [7,12] 0.29
  [7,3] 0.13
  [7,0] 0.08
  [22,11] 0.27
  [22,19] 0.23
  [22,1] 0.05
  [22,9] 0.3
  [22,7] 0.28
  [22,23] 0.02
  [22,18] 0.29
  [22,14] 0.06
  [22,21] 0.04
  [22,15] 0.17
  [22,16] 0.04
  [22,25] 0.17
  [22,12] 0.07
  [22,3] 0.28
  [22,0] 0.1
  [23,11] 0.2
  [23,19] 0.16
  [23,1] 0.02
  [23,9] 0.25
  [23,7] 0.24
  [23,22] 0.21
  [23,18] 0.29
  [23,14] 0.23
  [23,21] 0.19
  [23,15] 0.19
  [23,16] 0.07
  [23,25] 0.08
  [23,12] 0.13
  [23,3] 0.02
  [23,0] 0.09
  [18,11] 0.21
  [18,19] 0.28
  [18,1] 0.06
  [18,9] 0.27
  [18,7] 0.21
  [18,22] 0.17
  [18,23] 0.08
  [18,14] 0.21
  [18,21] 0.14
  [18,15] 0.14
  [18,16] 0.15
  [18,25] 0.27
  [18,12] 0.23
  [18,3] 0.17
  [18,0] 0.26
  [14,11] 0.06
  [14,19] 0.05
  [14,1] 0.1
  [14,9] 0.06
  [14,7] 0.19
  [14,22] 0.11
  [14,23] 0.21
  [14,18] 0.08
  [14,21] 0.23
  [14,15] 0.11
  [14,16] 0.16
  [14,25] 0.09
  [14,12] 0.05
  [14,3] 0.25
  [14,0] 0.19
  [21,11] 0.12
  [21,19] 0.29
  [21,1] 0.16
  [21,9] 0.17
  [21,7] 0.15
  [21,22] 0.18
  [21,23] 0.29
  [21,18] 0.21
  [21,14] 0.13
  [21,15] 0.2
  [21,16] 0.09
  [21,25] 0.09
  [21,12] 0.12
  [21,3] 0.02
  [21,0] 0.15
  [15,11] 0.27
  [15,19] 0.05
  [15,1] 0.06
  [15,9] 0.07
  [15,7] 0.12
  [15,22] 0.01
  [15,23] 0.19
  [15,18] 0.15
  [15,14] 0.09
  [15,21] 0.02
  [15,16] 0.04
  [15,25] 0.29
  [15,12] 0.09
  [15,3] 0.16
  [15,0] 0.2
  [16,11] 0.2
  [16,19] 0.03
  [16,1] 0.22
  [16,9] 0.03
  [16,7] 0.17
  [16,22] 0.28
  [16,23] 0.18
  [16,18] 0.2
  [16,14] 0.13
  [16,21] 0.11
  [16,15] 0.07
  [16,25] 0.14
  [16,12] 0.07
  [16,3] 0.02
  [16,0] 0.11
  [25,11] 0.05
  [25,19] 0.12
  [25,1] 0.09
  [25,9] 0.15
  [25,7] 0.07
  [25,22] 0.28
  [25,23] 0.06
  [25,18] 0.02
  [25,14] 0.1
  [25,21] 0.23
  [25,15] 0.05
  [25,16] 0.09
  [25,12] 0.11
  [25,3] 0.02
  [25,0] 0.29
  [12,11] 0.14
  [12,19] 0.23
  [12,1] 0.07
  [12,9] 0.14
  [12,7] 0.14
  [12,22] 0.15
  [12,23] 0.15
  [12,18] 0.14
  [12,14] 0.02
  [12,21] 0.17
  [12,15] 0.24
  [12,16] 0.08
  [12,25] 0.28
  [12,3] 0.15
  [12,0] 0.26
  [3,11] 0.11
  [3,19] 0.21
  [3,1] 0.2
  [3,9] 0.09
  [3,7] 0.13
  [3,22] 0.27
  [3,23] 0.06
  [3,18] 0.28
  [3,14] 0.19
  [3,21] 0.29
  [3,15] 0.11
  [3,16] 0.13
  [3,25] 0.29
  [3,12] 0.13
  [3,0] 0.06
;

param qki := 
  [1,6] 3
  [1,7] 1
  [1,8] 0
  [1,9] 3
  [1,10] 1
  [3,6] 0
  [3,7] 0
  [3,8] 1
  [3,9] 1
  [3,10] 1
  [7,6] 0
  [7,7] 2
  [7,8] 2
  [7,9] 1
  [7,10] 3
  [9,6] 0
  [9,7] 1
  [9,8] 2
  [9,9] 1
  [9,10] 2
  [11,6] 0
  [11,7] 1
  [11,8] 1
  [11,9] 3
  [11,10] 0
  [12,6] 0
  [12,7] 3
  [12,8] 1
  [12,9] 0
  [12,10] 1
  [14,6] 1
  [14,7] 0
  [14,8] 2
  [14,9] 0
  [14,10] 3
  [15,6] 0
  [15,7] 3
  [15,8] 2
  [15,9] 2
  [15,10] 1
  [16,6] 0
  [16,7] 2
  [16,8] 0
  [16,9] 1
  [16,10] 2
  [18,6] 3
  [18,7] 0
  [18,8] 2
  [18,9] 0
  [18,10] 0
  [19,6] 3
  [19,7] 3
  [19,8] 2
  [19,9] 1
  [19,10] 3
  [21,6] 3
  [21,7] 1
  [21,8] 0
  [21,9] 1
  [21,10] 0
  [22,6] 2
  [22,7] 1
  [22,8] 1
  [22,9] 3
  [22,10] 3
  [23,6] 1
  [23,7] 3
  [23,8] 0
  [23,9] 1
  [23,10] 1
  [25,6] 3
  [25,7] 2
  [25,8] 0
  [25,9] 1
  [25,10] 2
;

end;
